c status 46 1469274381014
c status 45 1469274381015
c status 44 1469274381023
s td 12 44 56
b 1 1 4 11 28 53 56 3 2 5 13 15 25 9 10 23 55 54 8 6 24 46 14 35 22 26 12 27 7
b 2 4 11 28 53 56 3 2 5 13 19 15 47 25 9 33 43 10 23 55 54 8 6 24 46 29 36 38 49 14 35 22 31 26 12 27 7 17
b 3 11 28 53 56 3 2 5 13 19 15 47 25 39 51 9 33 43 10 23 34 55 54 8 6 24 46 29 36 38 49 21 14 35 22 31 26 12 41 27 7 17
b 4 28 53 56 3 2 5 13 19 15 47 25 39 50 51 9 44 33 43 10 23 34 55 54 8 6 24 46 29 36 38 49 21 14 35 22 48 31 26 12 41 27 7 17
b 5 53 56 3 18 2 5 13 19 15 47 25 39 50 51 9 20 44 33 43 10 23 34 55 54 8 6 24 46 29 36 38 49 21 14 35 22 48 31 26 12 41 27 7 17
b 6 56 3 18 2 5 13 19 15 47 25 39 50 51 9 20 44 33 43 10 23 34 55 54 8 6 24 46 29 36 38 49 21 14 35 22 30 48 31 26 12 41 27 7 17
b 7 16 32 37 40 42 45 52 3 18 2 13 19 39 20 10 34 55 54 6 24 46 29 36 21 35 30 31 17
b 8 32 37 40 42 45 52 3 18 2 5 13 19 39 50 9 20 44 33 10 34 55 54 8 6 24 46 29 36 49 21 35 22 30 48 31 27 17
b 9 37 40 42 45 52 3 18 2 5 13 19 39 50 51 9 20 44 33 10 23 34 55 54 8 6 24 46 29 36 38 49 21 14 35 22 30 48 31 12 27 17
b 10 40 42 45 52 3 18 2 5 13 19 15 25 39 50 51 9 20 44 33 10 23 34 55 54 8 6 24 46 29 36 38 49 21 14 35 22 30 48 31 12 41 27 17
b 11 42 45 52 3 18 2 5 13 19 15 25 39 50 51 9 20 44 33 43 10 23 34 55 54 8 6 24 46 29 36 38 49 21 14 35 22 30 48 31 26 12 41 27 17
b 12 45 52 3 18 2 5 13 19 15 47 25 39 50 51 9 20 44 33 43 10 23 34 55 54 8 6 24 46 29 36 38 49 21 14 35 22 30 48 31 26 12 41 27 17
1 2
2 3
3 4
4 5
5 6
6 12
12 11
11 10
10 9
9 8
8 7
